NAME: instance_2155
TYPE: TSP
DIMENSION: 20
EDGE_WEIGHT_TYPE: EUC_2D
NODE_COORD_SECTION
0 37.61 9.07
1 47.75 85.01
2 35.03 78.76
3 3.98 90.34
4 77.13 87.06
5 58.72 49.60
6 22.41 45.23
7 24.89 4.69
8 66.14 86.78
9 36.73 22.29
10 98.15 1.00
11 66.51 3.73
12 65.93 51.92
13 0.32 67.35
14 53.53 24.02
15 53.35 23.95
16 63.73 4.75
17 81.34 87.01
18 25.07 31.66
19 32.22 57.94
EOF
